db/inputs/4815244167766198561850416771918430542.smt2
(set-logic QF_FP)
(declare-const x0 (_ FloatingPoint 11 53))
(declare-const x1 (_ FloatingPoint 11 53))
(assert (fp.geq (fp.sub RNE x0 x1) (fp.sub RNE x1 x1)))
(assert (fp.gt (fp.mul RNE x0 x1) (fp.sub RNE x1 x1)))
(assert (fp.geq (fp.div RNE x0 x0) (fp.add RNE x0 x1)))
(assert (fp.eq (fp.neg x0) (fp.neg x0)))
(assert (fp.leq (fp.neg x0) (fp.div RNE x0 x1)))
(assert (fp.lt (fp.neg x0) (fp.mul RNE x1 x1)))
(check-sat)
