db/data/4815244167766198561850416771918430542.z3.out
sat
-------------------
1684.757218373
